NAME : gr96.tsp
TYPE : TOUR
DIMENSION : 96
TOUR_LENGTH : 560.0634057913949
TOUR_SECTION
1
29
30
31
32
36
37
38
79
80
69
70
81
83
82
84
87
91
90
89
88
86
85
78
92
93
95
94
96
65
66
67
68
76
77
75
74
73
72
71
59
60
61
62
63
64
27
28
26
22
23
24
54
58
57
56
55
51
52
53
50
49
43
42
41
40
39
35
34
44
45
33
11
46
47
48
25
21
19
18
20
17
16
15
14
13
12
10
9
7
8
6
5
4
3
2
-1
